\ Capital budgeting with synergies: 80 projects, 70 synergy pairs
Maximize
  obj: 55 p0 + 23 p1 + 80 p2 + 75 p3 + 92 p4 + 40 p5 + 25 p6 + 28 p7 + 79 p8 + 30 p9 + 96 p10 + 76 p11 + 22 p12 + 94 p13 + 79 p14 + 41 p15 + 41 p16 + 83 p17 + 95 p18 + 53 p19 + 56 p20 + 30 p21 + 78 p22 + 62 p23 + 56 p24 + 46 p25 + 74 p26 + 60 p27 + 24 p28 + 37 p29 + 95 p30 + 97 p31 + 80 p32 + 93 p33 + 95 p34 + 81 p35 + 58 p36 + 42 p37 + 44 p38 + 64 p39 + 89 p40 + 71 p41 + 33 p42 + 34 p43 + 62 p44 + 36 p45 + 61 p46 + 93 p47 + 22 p48 + 27 p49 + 91 p50 + 51 p51 + 57 p52 + 24 p53 + 81 p54 + 91 p55 + 27 p56 + 96 p57 + 38 p58 + 46 p59 + 53 p60 + 55 p61 + 70 p62 + 86 p63 + 36 p64 + 21 p65 + 27 p66 + 85 p67 + 92 p68 + 22 p69 + 47 p70 + 90 p71 + 90 p72 + 92 p73 + 61 p74 + 81 p75 + 55 p76 + 32 p77 + 20 p78 + 78 p79 + 14 z0 + 38 z1 + 36 z2 + 11 z3 + 29 z4 + 10 z5 + 35 z6 + 25 z7 + 22 z8 + 18 z9 + 19 z10 + 18 z11 + 26 z12 + 28 z13 + 13 z14 + 17 z15 + 26 z16 + 20 z17 + 10 z18 + 18 z19 + 10 z20 + 10 z21 + 14 z22 + 26 z23 + 37 z24 + 20 z25 + 36 z26 + 13 z27 + 30 z28 + 19 z29 + 37 z30 + 17 z31 + 23 z32 + 31 z33 + 31 z34 + 22 z35 + 27 z36 + 15 z37 + 39 z38 + 25 z39 + 32 z40 + 36 z41 + 37 z42 + 29 z43 + 31 z44 + 24 z45 + 13 z46 + 11 z47 + 30 z48 + 36 z49 + 13 z50 + 14 z51 + 33 z52 + 24 z53 + 26 z54 + 24 z55 + 18 z56 + 15 z57 + 36 z58 + 25 z59 + 14 z60 + 34 z61 + 32 z62 + 32 z63 + 17 z64 + 11 z65 + 17 z66 + 38 z67 + 22 z68 + 36 z69
Subject To
  budget: 21 p0 + 19 p1 + 15 p2 + 15 p3 + 29 p4 + 39 p5 + 23 p6 + 30 p7 + 29 p8 + 14 p9 + 19 p10 + 10 p11 + 10 p12 + 30 p13 + 10 p14 + 10 p15 + 35 p16 + 28 p17 + 35 p18 + 14 p19 + 32 p20 + 24 p21 + 25 p22 + 33 p23 + 15 p24 + 13 p25 + 26 p26 + 20 p27 + 17 p28 + 32 p29 + 21 p30 + 12 p31 + 12 p32 + 31 p33 + 16 p34 + 34 p35 + 27 p36 + 26 p37 + 30 p38 + 39 p39 + 30 p40 + 14 p41 + 25 p42 + 12 p43 + 35 p44 + 20 p45 + 13 p46 + 32 p47 + 32 p48 + 27 p49 + 29 p50 + 26 p51 + 18 p52 + 17 p53 + 38 p54 + 31 p55 + 19 p56 + 29 p57 + 14 p58 + 25 p59 + 23 p60 + 38 p61 + 29 p62 + 11 p63 + 29 p64 + 22 p65 + 23 p66 + 31 p67 + 34 p68 + 17 p69 + 12 p70 + 15 p71 + 24 p72 + 26 p73 + 31 p74 + 31 p75 + 34 p76 + 36 p77 + 36 p78 + 22 p79 <= 675
  labor: 14 p0 + 24 p1 + 9 p2 + 5 p3 + 9 p4 + 9 p5 + 9 p6 + 17 p7 + 16 p8 + 17 p9 + 7 p10 + 6 p11 + 13 p12 + 24 p13 + 6 p14 + 7 p15 + 22 p16 + 23 p17 + 16 p18 + 20 p19 + 5 p20 + 15 p21 + 16 p22 + 19 p23 + 8 p24 + 23 p25 + 20 p26 + 23 p27 + 8 p28 + 24 p29 + 8 p30 + 12 p31 + 24 p32 + 14 p33 + 12 p34 + 21 p35 + 13 p36 + 6 p37 + 16 p38 + 23 p39 + 22 p40 + 11 p41 + 21 p42 + 11 p43 + 24 p44 + 20 p45 + 6 p46 + 20 p47 + 5 p48 + 12 p49 + 13 p50 + 23 p51 + 22 p52 + 21 p53 + 12 p54 + 17 p55 + 8 p56 + 10 p57 + 22 p58 + 16 p59 + 12 p60 + 18 p61 + 24 p62 + 7 p63 + 15 p64 + 18 p65 + 6 p66 + 12 p67 + 9 p68 + 12 p69 + 22 p70 + 15 p71 + 22 p72 + 6 p73 + 18 p74 + 8 p75 + 12 p76 + 12 p77 + 11 p78 + 9 p79 <= 466
  equip: 10 p0 + 4 p1 + 3 p2 + 5 p3 + 3 p4 + 13 p5 + 9 p6 + 17 p7 + 17 p8 + 3 p9 + 13 p10 + 9 p11 + 11 p12 + 4 p13 + 6 p14 + 17 p15 + 16 p16 + 8 p17 + 3 p18 + 10 p19 + 4 p20 + 8 p21 + 11 p22 + 13 p23 + 17 p24 + 10 p25 + 15 p26 + 13 p27 + 3 p28 + 4 p29 + 5 p30 + 17 p31 + 16 p32 + 8 p33 + 5 p34 + 16 p35 + 9 p36 + 10 p37 + 10 p38 + 17 p39 + 15 p40 + 8 p41 + 15 p42 + 10 p43 + 13 p44 + 12 p45 + 7 p46 + 3 p47 + 12 p48 + 4 p49 + 15 p50 + 11 p51 + 4 p52 + 17 p53 + 13 p54 + 4 p55 + 7 p56 + 6 p57 + 7 p58 + 16 p59 + 5 p60 + 7 p61 + 10 p62 + 5 p63 + 3 p64 + 4 p65 + 7 p66 + 16 p67 + 15 p68 + 3 p69 + 9 p70 + 12 p71 + 13 p72 + 16 p73 + 13 p74 + 3 p75 + 10 p76 + 10 p77 + 14 p78 + 10 p79 <= 310
  space: 6 p0 + 4 p1 + 4 p2 + 8 p3 + 5 p4 + 7 p5 + 6 p6 + 6 p7 + 7 p8 + 4 p9 + 11 p10 + 10 p11 + 5 p12 + 10 p13 + 2 p14 + 3 p15 + 5 p16 + 3 p17 + 6 p18 + 5 p19 + 9 p20 + 9 p21 + 5 p22 + 4 p23 + 2 p24 + 4 p25 + 7 p26 + 11 p27 + 2 p28 + 8 p29 + 2 p30 + 8 p31 + 8 p32 + 2 p33 + 7 p34 + 2 p35 + 10 p36 + 9 p37 + 11 p38 + 8 p39 + 8 p40 + 8 p41 + 5 p42 + 8 p43 + 8 p44 + 8 p45 + 9 p46 + 10 p47 + 11 p48 + 10 p49 + 11 p50 + 10 p51 + 4 p52 + 11 p53 + 6 p54 + 10 p55 + 6 p56 + 5 p57 + 10 p58 + 8 p59 + 3 p60 + 4 p61 + 4 p62 + 2 p63 + 10 p64 + 2 p65 + 10 p66 + 2 p67 + 5 p68 + 11 p69 + 11 p70 + 11 p71 + 7 p72 + 11 p73 + 9 p74 + 2 p75 + 11 p76 + 3 p77 + 9 p78 + 5 p79 <= 217
  syn0a: z0 - p27 <= 0
  syn0b: z0 - p37 <= 0
  syn1a: z1 - p1 <= 0
  syn1b: z1 - p26 <= 0
  syn2a: z2 - p34 <= 0
  syn2b: z2 - p78 <= 0
  syn3a: z3 - p29 <= 0
  syn3b: z3 - p55 <= 0
  syn4a: z4 - p2 <= 0
  syn4b: z4 - p62 <= 0
  syn5a: z5 - p16 <= 0
  syn5b: z5 - p55 <= 0
  syn6a: z6 - p62 <= 0
  syn6b: z6 - p68 <= 0
  syn7a: z7 - p5 <= 0
  syn7b: z7 - p30 <= 0
  syn8a: z8 - p8 <= 0
  syn8b: z8 - p70 <= 0
  syn9a: z9 - p6 <= 0
  syn9b: z9 - p40 <= 0
  syn10a: z10 - p3 <= 0
  syn10b: z10 - p23 <= 0
  syn11a: z11 - p46 <= 0
  syn11b: z11 - p60 <= 0
  syn12a: z12 - p5 <= 0
  syn12b: z12 - p72 <= 0
  syn13a: z13 - p34 <= 0
  syn13b: z13 - p42 <= 0
  syn14a: z14 - p12 <= 0
  syn14b: z14 - p16 <= 0
  syn15a: z15 - p22 <= 0
  syn15b: z15 - p32 <= 0
  syn16a: z16 - p19 <= 0
  syn16b: z16 - p79 <= 0
  syn17a: z17 - p30 <= 0
  syn17b: z17 - p33 <= 0
  syn18a: z18 - p23 <= 0
  syn18b: z18 - p34 <= 0
  syn19a: z19 - p49 <= 0
  syn19b: z19 - p74 <= 0
  syn20a: z20 - p6 <= 0
  syn20b: z20 - p69 <= 0
  syn21a: z21 - p23 <= 0
  syn21b: z21 - p61 <= 0
  syn22a: z22 - p36 <= 0
  syn22b: z22 - p79 <= 0
  syn23a: z23 - p28 <= 0
  syn23b: z23 - p79 <= 0
  syn24a: z24 - p15 <= 0
  syn24b: z24 - p18 <= 0
  syn25a: z25 - p47 <= 0
  syn25b: z25 - p55 <= 0
  syn26a: z26 - p16 <= 0
  syn26b: z26 - p53 <= 0
  syn27a: z27 - p22 <= 0
  syn27b: z27 - p37 <= 0
  syn28a: z28 - p43 <= 0
  syn28b: z28 - p69 <= 0
  syn29a: z29 - p7 <= 0
  syn29b: z29 - p41 <= 0
  syn30a: z30 - p57 <= 0
  syn30b: z30 - p78 <= 0
  syn31a: z31 - p21 <= 0
  syn31b: z31 - p26 <= 0
  syn32a: z32 - p14 <= 0
  syn32b: z32 - p54 <= 0
  syn33a: z33 - p20 <= 0
  syn33b: z33 - p22 <= 0
  syn34a: z34 - p46 <= 0
  syn34b: z34 - p72 <= 0
  syn35a: z35 - p22 <= 0
  syn35b: z35 - p74 <= 0
  syn36a: z36 - p42 <= 0
  syn36b: z36 - p77 <= 0
  syn37a: z37 - p34 <= 0
  syn37b: z37 - p79 <= 0
  syn38a: z38 - p5 <= 0
  syn38b: z38 - p62 <= 0
  syn39a: z39 - p24 <= 0
  syn39b: z39 - p75 <= 0
  syn40a: z40 - p21 <= 0
  syn40b: z40 - p35 <= 0
  syn41a: z41 - p48 <= 0
  syn41b: z41 - p53 <= 0
  syn42a: z42 - p36 <= 0
  syn42b: z42 - p69 <= 0
  syn43a: z43 - p14 <= 0
  syn43b: z43 - p38 <= 0
  syn44a: z44 - p13 <= 0
  syn44b: z44 - p79 <= 0
  syn45a: z45 - p27 <= 0
  syn45b: z45 - p46 <= 0
  syn46a: z46 - p1 <= 0
  syn46b: z46 - p50 <= 0
  syn47a: z47 - p48 <= 0
  syn47b: z47 - p56 <= 0
  syn48a: z48 - p10 <= 0
  syn48b: z48 - p36 <= 0
  syn49a: z49 - p22 <= 0
  syn49b: z49 - p42 <= 0
  syn50a: z50 - p32 <= 0
  syn50b: z50 - p37 <= 0
  syn51a: z51 - p14 <= 0
  syn51b: z51 - p78 <= 0
  syn52a: z52 - p60 <= 0
  syn52b: z52 - p76 <= 0
  syn53a: z53 - p36 <= 0
  syn53b: z53 - p44 <= 0
  syn54a: z54 - p0 <= 0
  syn54b: z54 - p12 <= 0
  syn55a: z55 - p38 <= 0
  syn55b: z55 - p68 <= 0
  syn56a: z56 - p5 <= 0
  syn56b: z56 - p70 <= 0
  syn57a: z57 - p55 <= 0
  syn57b: z57 - p65 <= 0
  syn58a: z58 - p47 <= 0
  syn58b: z58 - p52 <= 0
  syn59a: z59 - p41 <= 0
  syn59b: z59 - p47 <= 0
  syn60a: z60 - p1 <= 0
  syn60b: z60 - p2 <= 0
  syn61a: z61 - p19 <= 0
  syn61b: z61 - p49 <= 0
  syn62a: z62 - p13 <= 0
  syn62b: z62 - p26 <= 0
  syn63a: z63 - p7 <= 0
  syn63b: z63 - p35 <= 0
  syn64a: z64 - p23 <= 0
  syn64b: z64 - p29 <= 0
  syn65a: z65 - p37 <= 0
  syn65b: z65 - p53 <= 0
  syn66a: z66 - p8 <= 0
  syn66b: z66 - p45 <= 0
  syn67a: z67 - p13 <= 0
  syn67b: z67 - p52 <= 0
  syn68a: z68 - p3 <= 0
  syn68b: z68 - p42 <= 0
  syn69a: z69 - p15 <= 0
  syn69b: z69 - p36 <= 0
Binary
  p0 p1 p2 p3 p4 p5 p6 p7 p8 p9
  p10 p11 p12 p13 p14 p15 p16 p17 p18 p19
  p20 p21 p22 p23 p24 p25 p26 p27 p28 p29
  p30 p31 p32 p33 p34 p35 p36 p37 p38 p39
  p40 p41 p42 p43 p44 p45 p46 p47 p48 p49
  p50 p51 p52 p53 p54 p55 p56 p57 p58 p59
  p60 p61 p62 p63 p64 p65 p66 p67 p68 p69
  p70 p71 p72 p73 p74 p75 p76 p77 p78 p79
  z0 z1 z2 z3 z4 z5 z6 z7 z8 z9
  z10 z11 z12 z13 z14 z15 z16 z17 z18 z19
  z20 z21 z22 z23 z24 z25 z26 z27 z28 z29
  z30 z31 z32 z33 z34 z35 z36 z37 z38 z39
  z40 z41 z42 z43 z44 z45 z46 z47 z48 z49
  z50 z51 z52 z53 z54 z55 z56 z57 z58 z59
  z60 z61 z62 z63 z64 z65 z66 z67 z68 z69
End
